Calling Gurobi_2 9.00: 524849 variables, 394162 equality constraints
------------------------------------------------------------
Gurobi Optimizer, licensed to CVX for CVX
Academic license - for non-commercial use only
Gurobi Optimizer version 9.0.0 build v9.0.0rc2 (linux64)
Optimize a model with 394162 rows, 524849 columns and 1451854 nonzeros
Model fingerprint: 0x6a1376f6
Variable types: 381467 continuous, 143382 integer (143382 binary)
Coefficient statistics:
  Matrix range     [1e+00, 1e+01]
  Objective range  [3e-02, 7e+01]
  Bounds range     [1e+00, 1e+00]
  RHS range        [1e+00, 2e+02]
Presolve removed 208124 rows and 454173 columns
Presolve time: 2.45s
Presolved: 186038 rows, 70676 columns, 510996 nonzeros
Variable types: 0 continuous, 70676 integer (70676 binary)

Deterministic concurrent LP optimizer: primal and dual simplex
Showing first log only...


Root simplex log...

Iteration    Objective       Primal Inf.    Dual Inf.      Time
   11431    1.3176364e+01   1.937144e+00   1.247938e+07      6s
   15081    1.5002407e+01   9.996151e-01   6.505744e+06     10s
Concurrent spin time: 0.00s

Solved with dual simplex

Root relaxation: objective 1.700000e+01, 13117 iterations, 11.43 seconds
Total elapsed time = 27.79s

    Nodes    |    Current Node    |     Objective Bounds      |     Work
 Expl Unexpl |  Obj  Depth IntInf | Incumbent    BestBd   Gap | It/Node Time

     0     0   17.00000    0 1966          -   17.00000      -     -   36s
H    0     0                    9375.9944325   17.00000   100%     -   37s
H    0     0                    7522.4578472   17.00000   100%     -   48s
     0     0   17.00000    0 4776 7522.45785   17.00000   100%     -   98s
     0     0   17.00000    0 1865 7522.45785   17.00000   100%     -  200s
     0     0   17.00000    0 1761 7522.45785   17.00000   100%     -  259s
     0     0   17.00000    0 1391 7522.45785   17.00000   100%     -  576s
H    0     0                    7519.5066276   17.00000   100%     -  577s
     0     0   17.00000    0 1399 7519.50663   17.00000   100%     -  709s
     0     0  399.22570    0 1687 7519.50663  399.22570  94.7%     -  789s
H    0     0                    7452.1529691  399.22570  94.6%     -  790s
     0     0  599.16407    0 2539 7452.15297  599.16407  92.0%     -  807s
     0     0  624.29764    0 2633 7452.15297  624.29764  91.6%     -  813s
     0     0  624.29764    0 2633 7452.15297  624.29764  91.6%     -  813s
     0     0 5350.34092    0 6546 7452.15297 5350.34092  28.2%     -  882s
H    0     0                    7091.9334569 5350.34092  24.6%     -  882s
     0     0 5355.24643    0 6557 7091.93346 5355.24643  24.5%     -  888s
     0     0 5355.24643    0 6556 7091.93346 5355.24643  24.5%     -  888s
     0     0 7008.08971    0 7094 7091.93346 7008.08971  1.18%     -  990s
H    0     0                    7031.5554081 7008.08971  0.33%     -  990s
H    0     0                    7026.4151642 7008.08971  0.26%     - 1001s
     0     0 7008.08971    0 6764 7026.41516 7008.08971  0.26%     - 1011s
     0     0 7021.12998    0 6307 7026.41516 7021.12998  0.08%     - 1305s
     0     0 7021.14840    0 5218 7026.41516 7021.14840  0.07%     - 1322s
     0     0 7024.16913    0 2098 7026.41516 7024.16913  0.03%     - 1482s
     0     0 7024.16913    0 1675 7026.41516 7024.16913  0.03%     - 1555s
     0     0 7024.16913    0 2334 7026.41516 7024.16913  0.03%     - 1635s
     0     0 7024.16913    0 1685 7026.41516 7024.16913  0.03%     - 1712s
     0     0 7024.16913    0 2005 7026.41516 7024.16913  0.03%     - 1808s
     0     0 7024.16913    0 1639 7026.41516 7024.16913  0.03%     - 1828s
     0     0 7024.16913    0 2736 7026.41516 7024.16913  0.03%     - 1832s
     0     0 7024.16913    0 4915 7026.41516 7024.16913  0.03%     - 1837s
     0     0 7024.16913    0 6616 7026.41516 7024.16913  0.03%     - 1852s
     0     0 7024.16913    0 4197 7026.41516 7024.16913  0.03%     - 1894s
     0     0 7024.16913    0 4175 7026.41516 7024.16913  0.03%     - 1903s
     0     0 7024.54659    0 1531 7026.41516 7024.54659  0.03%     - 2035s
     0     0 7025.65663    0  664 7026.41516 7025.65663  0.01%     - 2058s
     0     0 7025.65663    0  676 7026.41516 7025.65663  0.01%     - 2108s
     0     0 7025.65663    0 2358 7026.41516 7025.65663  0.01%     - 2190s
     0     0 7025.65663    0 2887 7026.41516 7025.65663  0.01%     - 2230s
     0     0 7025.65663    0 2353 7026.41516 7025.65663  0.01%     - 2260s
     0     0 7025.65663    0 3227 7026.41516 7025.65663  0.01%     - 2293s
     0     0 7025.65663    0 3002 7026.41516 7025.65663  0.01%     - 2302s
     0     0 7025.65663    0 4592 7026.41516 7025.65663  0.01%     - 2306s
     0     0 7025.65663    0 5511 7026.41516 7025.65663  0.01%     - 2317s
     0     0 7025.65663    0 4707 7026.41516 7025.65663  0.01%     - 2331s
     0     0 7025.65663    0 2843 7026.41516 7025.65663  0.01%     - 2336s
     0     0 7025.65663    0 3325 7026.41516 7025.65663  0.01%     - 2352s
     0     0 7025.65663    0  870 7026.41516 7025.65663  0.01%     - 2367s
     0     0 7025.65663    0 2704 7026.41516 7025.65663  0.01%     - 2394s
     0     0 7025.65663    0 3577 7026.41516 7025.65663  0.01%     - 2435s
     0     0 7025.65663    0 2612 7026.41516 7025.65663  0.01%     - 2517s
     0     0 7025.65663    0 2167 7026.41516 7025.65663  0.01%     - 2535s
     0     0 7025.65663    0 2493 7026.41516 7025.65663  0.01%     - 2570s
     0     0 7025.65663    0 3519 7026.41516 7025.65663  0.01%     - 2598s
     0     0 7025.65663    0 3691 7026.41516 7025.65663  0.01%     - 2640s
     0     0 7025.65663    0 1096 7026.41516 7025.65663  0.01%     - 2676s
     0     0 7025.65663    0 1882 7026.41516 7025.65663  0.01%     - 2691s
     0     0 7025.65663    0  975 7026.41516 7025.65663  0.01%     - 2743s
     0     0 7025.65663    0  705 7026.41516 7025.65663  0.01%     - 2748s
     0     0 7025.65663    0  708 7026.41516 7025.65663  0.01%     - 2785s
     0     0 7025.65663    0  693 7026.41516 7025.65663  0.01%     - 2805s
     0     0 7025.65663    0  693 7026.41516 7025.65663  0.01%     - 2848s
     0     2 7025.65663    0  693 7026.41516 7025.65663  0.01%     - 2896s
     1     5 7025.66913    1  685 7026.41516 7025.65663  0.01% 17865 2908s
     3     8 7025.68163    2  694 7026.41516 7025.65663  0.01%  6166 2926s
     7    16 7025.68163    3  704 7026.41516 7025.65663  0.01%  4050 2943s
    15    24 7025.68163    4  702 7026.41516 7025.65663  0.01%  2216 3024s
    23    30 infeasible    4      7026.41516 7025.65663  0.01%  2010 3085s
    31    38 7025.68163    5  695 7026.41516 7025.65663  0.01%  2113 3154s
    39    46 7025.78382    5 1169 7026.41516 7025.65663  0.01%  2499 3208s
    47    59 7025.68163    6  695 7026.41516 7025.65663  0.01%  2809 3265s
    60    73 7025.68163    7  695 7026.41516 7025.65663  0.01%  2895 3304s
    74    99 7025.68163    8  695 7026.41516 7025.65663  0.01%  2795 3380s
   102   207 7025.68163    9  691 7026.41516 7025.65663  0.01%  2524 3557s
   228   597 7025.68163   13  714 7026.41516 7025.65663  0.01%  1811 3809s
   704  1321 7025.71913   53  450 7026.41516 7025.65663  0.01%  1002 4133s
  1561  3167 7025.75663  116  596 7026.41516 7025.65663  0.01%   662 4394s
  3637  4173 7025.65663   17  476 7026.41516 7025.65663  0.01%   419 4545s
  5017  4417 7025.65663   18  474 7026.41516 7025.65663  0.01%   342 4691s
  5322  4418 7025.68163   31 2098 7026.41516 7025.65663  0.01%   330 4782s
  5324  4419 7026.16913   47 2704 7026.41516 7025.65663  0.01%   330 4814s
  5325  4420 7026.34328  171 3269 7026.41516 7025.65663  0.01%   330 4847s
  5326  4421 7026.16913   65 2564 7026.41516 7025.65663  0.01%   330 4925s
  5327  4421 7025.88917  192 2197 7026.41516 7025.65663  0.01%   329 5021s
  5328  4422 7026.14380   93 2947 7026.41516 7025.65663  0.01%   329 5029s
  5329  4423 7026.06014  220 3572 7026.41516 7025.65663  0.01%   329 5037s
  5330  4423 7025.75663  119 3244 7026.41516 7025.65663  0.01%   329 5109s
  5331  4424 7026.16913   99 2575 7026.41516 7025.65663  0.01%   329 5115s
  5332  4425 7026.19352  177 1956 7026.41516 7025.65663  0.01%   329 5150s
  5333  4425 7026.35690  219 3090 7026.41516 7025.65663  0.01%   329 5168s
  5334  4426 7026.30388  114 3202 7026.41516 7025.65663  0.01%   329 5171s
  5335  4427 7025.96634  144 3156 7026.41516 7025.65663  0.01%   329 5176s
  5336  4427 7026.18163   59 3075 7026.41516 7025.65663  0.01%   329 5182s
  5337  4428 7025.82483  160  408 7026.41516 7025.65663  0.01%   329 5230s
  5338  4429 7026.16913   90  409 7026.41516 7025.65663  0.01%   329 5256s
  5339  4429 7025.68163   17  407 7026.41516 7025.65663  0.01%   329 5274s
  5340  4430 7025.68163   43  407 7026.41516 7025.65663  0.01%   329 5295s
  5341  4431 7026.16913   71  407 7026.41516 7025.65663  0.01%   329 5319s
  5342  4431 7025.65663   19  407 7026.41516 7025.65663  0.01%   329 5364s
  5343  4432 7025.70663   69  407 7026.41516 7025.65663  0.01%   328 5374s
  5344  4433 7025.66913   36  407 7026.41516 7025.65663  0.01%   328 5383s
  5345  4436 7025.65663   11  408 7026.41516 7025.65663  0.01%   398 5490s
  5347  4440 7025.66913   12  416 7026.41516 7025.65663  0.01%   398 5603s
  5351  4446 7025.68163   13  435 7026.41516 7025.65663  0.01%   398 5794s
  5359  4452 7025.68163   14  865 7026.41516 7025.65663  0.01%   401 5945s
  5367  4457 7025.68163   14  436 7026.41516 7025.65663  0.01%   405 5981s
  5375  4462 7025.68163   15  856 7026.41516 7025.65663  0.01%   404 6063s
  5383  4468 7025.68163   15  471 7026.41516 7025.65663  0.01%   405 6110s
  5391  4479 7025.68163   16  472 7026.41516 7025.65663  0.01%   405 6141s
  5405  4486 7025.68163   17  680 7026.41516 7025.65663  0.01%   406 6273s
  5417  4511 7025.68163   17  476 7026.41516 7025.65663  0.01%   412 6457s
  5448  4592 7025.68163   19  847 7026.41516 7025.65663  0.01%   417 6835s
  5547  5124 7025.68163   22  778 7026.41516 7025.65663  0.01%   453 7469s
  6223  5713 7025.71288   68  620 7026.41516 7025.65663  0.01%   462 7937s
  7684  5539 7025.65663   19  567 7026.41516 7025.65663  0.01%   440 8178s
  8246  5728 7026.16913   17  199 7026.41516 7025.65663  0.01%   439 8421s
  9054  5882 7026.10021   35  236 7026.41516 7025.65663  0.01%   430 8652s
  9924  6217 7026.41473   78  264 7026.41516 7025.65663  0.01%   415 8875s
 10880  6346 7026.16913   24  258 7026.41516 7025.65663  0.01%   400 9098s
 11690  6568 7026.16913   22  218 7026.41516 7025.65663  0.01%   391 9327s
 12491  6828 7026.12218   66  460 7026.41516 7025.66913  0.01%   383 9545s
 13409  6917 7025.66913   26  976 7026.41516 7025.66913  0.01%   369 9783s
 14004  7005     cutoff   75      7026.41516 7025.66913  0.01%   372 10059s
 14905  7231     cutoff   82      7026.41516 7025.66913  0.01%   372 10314s
 16012  7200 7026.10815   22  949 7026.41516 7025.66913  0.01%   366 10585s
 16577  7587     cutoff   52      7026.41516 7025.66913  0.01%   365 10856s
 17710  7689 7026.28559   58  278 7026.41516 7025.66913  0.01%   363 11128s
 18885  7407 7026.38803   81  276 7026.41516 7025.66913  0.01%   361 11449s
 18982  8099 7026.16913   23  649 7026.41516 7025.66913  0.01%   360 11731s
 20139  8781     cutoff   26      7026.41516 7025.66913  0.01%   353 12028s
 21501  9342 7025.85266   48  227 7026.41516 7025.66913  0.01%   348 12325s
 22635 10198 7025.86516   49  262 7026.41516 7025.66913  0.01%   346 12638s
 24189 10878 7025.79596   30  595 7026.41516 7025.66913  0.01%   341 12967s
 25325 11557 7025.85266   21  224 7026.41516 7025.66913  0.01%   341 13319s
 26569 12086 7025.97113   21  913 7026.41516 7025.66913  0.01%   345 13667s
 27458 12886 7026.04352   42  338 7026.41516 7025.66913  0.01%   349 14016s
 28900 13147 7026.04352   64  273 7026.41516 7025.67530  0.01%   350 14452s
 29438 13148 7025.88430   61 2098 7026.41516 7025.67530  0.01%   354 16163s
 29440 13149 7025.86516   41 2704 7026.41516 7025.67530  0.01%   354 16196s
 29441 13150 7026.00464   74 3470 7026.41516 7025.67530  0.01%   354 16229s
 29442 13151 7026.04200   86 2461 7026.41516 7025.67530  0.01%   354 16309s
 29443 13151 7026.30609   74 2495 7026.41516 7025.67530  0.01%   354 16375s
 29444 13152 7026.22559   89 3046 7026.41516 7025.67530  0.01%   354 16411s
 29445 13153 7026.08183   75 3771 7026.41516 7025.67530  0.01%   354 16428s
 29446 13153 7025.96913   21 4453 7026.41516 7025.67530  0.01%   354 16441s
 29447 13154 7026.09016   72 2985 7026.41516 7025.67530  0.01%   354 16475s
 29449 13155 7025.88504   61 2707 7026.41516 7025.67530  0.01%   354 16553s
 29450 13156 7026.17516   89 2982 7026.41516 7025.67530  0.01%   354 16556s
 29451 13157 7025.98163   36 3119 7026.41516 7025.67530  0.01%   354 16626s
 29453 13158 7026.23163   40 2877 7026.41516 7025.67530  0.01%   354 16708s
 29454 13159 7025.94467   40  570 7026.41516 7025.67530  0.01%   354 16825s
 29455 13159 7025.98224   52  716 7026.41516 7025.67530  0.01%   354 16906s
 29456 13160 7025.85891   54  761 7026.41516 7025.67530  0.01%   354 17028s
 29457 13161 7025.68163   30  800 7026.41516 7025.67530  0.01%   354 17086s
 29458 13161 7026.24413  148  563 7026.41516 7025.67530  0.01%   354 17259s
 29459 13162 7025.97576   37  565 7026.41516 7025.67530  0.01%   354 17415s
 29460 13163 7026.35634   87  375 7026.41516 7025.67530  0.01%   354 17569s
 29461 13163 7025.85266   38  383 7026.41516 7025.67530  0.01%   354 17687s
 29462 13164 7026.10266   76  383 7026.41516 7025.67530  0.01%   354 17745s
 29463 13165 7025.85266   52  383 7026.41516 7025.67530  0.01%   354 17759s
 29464 13168 7025.67530   21  781 7026.41516 7025.67530  0.01%   366 17953s
 29466 13172 7025.67530   22  780 7026.41516 7025.67530  0.01%   366 18133s
 29470 13178 7025.67530   23  782 7026.41516 7025.67530  0.01%   366 18463s
 29478 13184 7025.67530   24  783 7026.41516 7025.67530  0.01%   368 18642s
 29486 13185 7025.73026   24 1070 7026.41516 7025.67530  0.01%   369 18907s
 29494 13188 7025.67530   25  775 7026.41516 7025.67530  0.01%   370 19098s
 29502 13194 7025.73026   25 1201 7026.41516 7025.67530  0.01%   370 19295s
 29510 13201 7025.67530   26  777 7026.41516 7025.67530  0.01%   371 19414s
 29522 13206 7025.74575   26  993 7026.41516 7025.67530  0.01%   371 19496s
 29533 13211 7025.67530   27  804 7026.41516 7025.67530  0.01%   372 19582s
 29544 13245     cutoff   27      7026.41516 7025.67530  0.01%   372 19823s
 29595 13334 7025.67530   30  709 7026.41516 7025.67530  0.01%   374 20324s
 29751 13590 7025.79352   37  529 7026.41516 7025.67530  0.01%   379 21217s
 30357 14263 7025.86638   34  490 7026.41516 7025.67530  0.01%   389 21918s
 32029 14395 7026.23163   33  228 7026.41516 7025.68163  0.01%   396 22209s
 33264 14557 7025.84016   48  298 7026.41516 7025.71913  0.01%   391 22446s

Cutting planes:
  Gomory: 24
  Implied bound: 1
  Zero half: 19
  RLT: 4819

Explored 34212 nodes (14623406 simplex iterations) in 22446.45 seconds
Thread count was 8 (of 8 available processors)

Solution count 7: 7026.42 7031.56 7091.93 ... 9375.99

Optimal solution found (tolerance 1.00e-04)
Best objective 7.026415164229e+03, best bound 7.025742044310e+03, gap 0.0096%

User-callback calls 3703394, time in user-callback 3.92 sec
------------------------------------------------------------
Status: Solved
Optimal value (cvx_optval): +7026.42
